presolving:
(round 1, fast)       16000 del vars, 32200 del conss, 0 add conss, 65330 chg bounds, 0 chg sides, 0 chg coeffs, 0 upgd conss, 0 impls, 16089 clqs
(round 2, fast)       16071 del vars, 32400 del conss, 0 add conss, 65330 chg bounds, 0 chg sides, 0 chg coeffs, 0 upgd conss, 0 impls, 16089 clqs
(round 3, fast)       16071 del vars, 32400 del conss, 0 add conss, 65330 chg bounds, 71 chg sides, 0 chg coeffs, 0 upgd conss, 0 impls, 16089 clqs
(round 4, fast)       23747 del vars, 32401 del conss, 0 add conss, 65330 chg bounds, 71 chg sides, 0 chg coeffs, 0 upgd conss, 0 impls, 16089 clqs
(round 5, fast)       23747 del vars, 32401 del conss, 0 add conss, 97330 chg bounds, 71 chg sides, 0 chg coeffs, 0 upgd conss, 0 impls, 16089 clqs
(round 6, fast)       23747 del vars, 32601 del conss, 0 add conss, 97330 chg bounds, 71 chg sides, 0 chg coeffs, 0 upgd conss, 0 impls, 16089 clqs
(round 7, fast)       55747 del vars, 32761 del conss, 0 add conss, 97330 chg bounds, 71 chg sides, 0 chg coeffs, 0 upgd conss, 0 impls, 16089 clqs
   (2.0s) running MILP presolver
   (2.7s) MILP presolver (3 rounds): 0 aggregations, 8253 fixings, 0 bound changes
(round 8, medium)     64000 del vars, 49000 del conss, 16081 add conss, 97330 chg bounds, 71 chg sides, 0 chg coeffs, 0 upgd conss, 0 impls, 16080 clqs
(round 9, exhaustive) 64000 del vars, 49000 del conss, 16081 add conss, 97330 chg bounds, 71 chg sides, 0 chg coeffs, 16081 upgd conss, 0 impls, 16080 clqs
(round 10, fast)       64200 del vars, 49001 del conss, 16081 add conss, 97330 chg bounds, 71 chg sides, 0 chg coeffs, 16081 upgd conss, 0 impls, 16080 clqs
   (3.4s) probing: 51/16200 (0.3%) - 0 fixings, 0 aggregations, 0 implications, 0 bound changes
   (3.4s) probing aborted: 50/50 successive totally useless probings
   (3.5s) symmetry computation started: requiring (bin +, int -, cont +), (fixed: bin -, int +, cont -)
   (3.6s) no symmetry present
presolving (11 rounds: 11 fast, 3 medium, 2 exhaustive):
 64200 deleted vars, 49001 deleted constraints, 16081 added constraints, 97330 tightened bounds, 0 added holes, 71 changed sides, 0 changed coefficients
 0 implications, 16080 cliques
presolved problem has 16200 variables (16200 bin, 0 int, 0 impl, 0 cont) and 16080 constraints
  16080 constraints of type <setppc>
Presolving Time: 3.05

 time | node  | left  |LP iter|LP it/n|mem/heur|mdpt |vars |cons |rows |cuts |sepa|confs|strbr|  dualbound   | primalbound  |  gap   | compl. 
p 4.0s|     1 |     0 |     0 |     - |  clique|   0 |  16k|  16k|  16k|   0 |  0 |   0 |   0 | 1.808370e+03 | 5.555714e+05 |  Large | unknown
p 4.5s|     1 |     0 |     0 |     - | vbounds|   0 |  16k|  16k|  16k|   0 |  0 |   0 |   0 | 1.808370e+03 | 2.142734e+05 |  Large | unknown
  8.6s|     1 |     0 |  6286 |     - |   319M |   0 |  16k|  16k|  16k|   0 |  0 |   1 |   0 | 1.865009e+05 | 2.142734e+05 |  14.89%| unknown
r 8.7s|     1 |     0 |  6286 |     - |rounding|   0 |  16k|  16k|  16k|   0 |  0 |   1 |   0 | 1.865009e+05 | 1.982374e+05 |   6.29%| unknown
 10.1s|     1 |     0 |  6556 |     - |   323M |   0 |  16k|  16k|  16k|   2 |  1 |   1 |   0 | 1.865115e+05 | 1.982374e+05 |   6.29%| unknown
 11.0s|     1 |     0 |  6672 |     - |   325M |   0 |  16k|  16k|  16k|   3 |  2 |   1 |   0 | 1.865226e+05 | 1.982374e+05 |   6.28%| unknown
 12.5s|     1 |     0 |  6901 |     - |   326M |   0 |  16k|  16k|  16k|   4 |  3 |   1 |   0 | 1.865421e+05 | 1.982374e+05 |   6.27%| unknown
 14.1s|     1 |     0 |  7299 |     - |   328M |   0 |  16k|  16k|  16k|   5 |  4 |   1 |   0 | 1.865594e+05 | 1.982374e+05 |   6.26%| unknown
 15.3s|     1 |     0 |  7471 |     - |   330M |   0 |  16k|  16k|  16k|   6 |  5 |   1 |   0 | 1.865700e+05 | 1.982374e+05 |   6.25%| unknown
 16.0s|     1 |     0 |  7596 |     - |   331M |   0 |  16k|  16k|  16k|   7 |  7 |   1 |   0 | 1.865734e+05 | 1.982374e+05 |   6.25%| unknown
 17.0s|     1 |     0 |  7780 |     - |   333M |   0 |  16k|  16k|  16k|   8 |  8 |   1 |   0 | 1.865814e+05 | 1.982374e+05 |   6.25%| unknown
 18.6s|     1 |     0 |  7937 |     - |   335M |   0 |  16k|  16k|  16k|   9 |  9 |   1 |   0 | 1.865867e+05 | 1.982374e+05 |   6.24%| unknown
 19.6s|     1 |     0 |  8042 |     - |   337M |   0 |  16k|  16k|  16k|  10 | 10 |   1 |   0 | 1.865923e+05 | 1.982374e+05 |   6.24%| unknown
 20.7s|     1 |     0 |  8222 |     - |   338M |   0 |  16k|  16k|  16k|  12 | 11 |   1 |   0 | 1.865981e+05 | 1.982374e+05 |   6.24%| unknown
 21.3s|     1 |     0 |  8365 |     - |   340M |   0 |  16k|  16k|  16k|  13 | 12 |   1 |   0 | 1.866083e+05 | 1.982374e+05 |   6.23%| unknown
 time | node  | left  |LP iter|LP it/n|mem/heur|mdpt |vars |cons |rows |cuts |sepa|confs|strbr|  dualbound   | primalbound  |  gap   | compl. 
 21.8s|     1 |     0 |  8451 |     - |   342M |   0 |  16k|  16k|  16k|  14 | 13 |   1 |   0 | 1.866105e+05 | 1.982374e+05 |   6.23%| unknown
L86.2s|     1 |     0 | 66393 |     - |    rens|   0 |  16k|  16k|  16k|  14 | 13 |  11 |   0 | 1.866105e+05 | 1.879554e+05 |   0.72%| unknown
 86.5s|     1 |     0 | 66393 |     - |   348M |   0 |  16k|  16k|  16k|  14 | 13 |  11 |   0 | 1.866105e+05 | 1.879554e+05 |   0.72%| unknown
 86.6s|     1 |     0 | 66393 |     - |   349M |   0 |  16k|  16k|6703 |  14 | 13 |  11 |   0 | 1.866105e+05 | 1.879554e+05 |   0.72%| unknown
 86.8s|     1 |     0 | 66393 |     - |   353M |   0 |  16k|6690 |6703 |  14 | 14 |  11 |   0 | 1.866105e+05 | 1.879554e+05 |   0.72%| unknown
(run 1, node 1) restarting after 12449 global fixings of integer variables

(restart) converted 14 cuts from the global cut pool into linear constraints

presolving:
(round 1, fast)       12449 del vars, 0 del conss, 0 add conss, 0 chg bounds, 0 chg sides, 153 chg coeffs, 0 upgd conss, 0 impls, 3781 clqs
   (87.0s) running MILP presolver
   (87.0s) MILP presolver found nothing
(round 2, exhaustive) 12449 del vars, 1 del conss, 0 add conss, 0 chg bounds, 0 chg sides, 153 chg coeffs, 14 upgd conss, 0 impls, 3781 clqs
presolving (3 rounds: 3 fast, 2 medium, 2 exhaustive):
 12449 deleted vars, 1 deleted constraints, 0 added constraints, 0 tightened bounds, 0 added holes, 0 changed sides, 153 changed coefficients
 0 implications, 3781 cliques
presolved problem has 3751 variables (3751 bin, 0 int, 0 impl, 0 cont) and 3795 constraints
     14 constraints of type <knapsack>
   3781 constraints of type <setppc>
Presolving Time: 3.28
transformed 3/5 original solutions to the transformed problem space

 time | node  | left  |LP iter|LP it/n|mem/heur|mdpt |vars |cons |rows |cuts |sepa|confs|strbr|  dualbound   | primalbound  |  gap   | compl. 
 87.5s|     1 |     0 | 68575 |     - |   358M |   0 |3751 |3795 |3795 |   0 |  0 |  11 |   0 | 1.866105e+05 | 1.879554e+05 |   0.72%| unknown
 89.6s|     1 |     0 | 68688 |     - |   363M |   0 |3751 |3795 |3797 |   2 |  1 |  11 |   0 | 1.866237e+05 | 1.879554e+05 |   0.71%| unknown
 91.1s|     1 |     0 | 68908 |     - |   367M |   0 |3751 |3795 |3800 |   5 |  2 |  11 |   0 | 1.866437e+05 | 1.879554e+05 |   0.70%| unknown
 91.2s|     1 |     0 | 68908 |     - |   367M |   0 |3751 |3795 |3799 |   5 |  2 |  11 |   0 | 1.866437e+05 | 1.879554e+05 |   0.70%| unknown
 93.8s|     1 |     0 | 69041 |     - |   371M |   0 |3751 |3794 |3800 |   6 |  3 |  11 |   0 | 1.866534e+05 | 1.879554e+05 |   0.70%| unknown
 94.0s|     1 |     0 | 69113 |     - |   372M |   0 |3751 |3794 |3801 |   7 |  4 |  11 |   0 | 1.866576e+05 | 1.879554e+05 |   0.70%| unknown
 94.4s|     1 |     0 | 69211 |     - |   372M |   0 |3751 |3794 |3802 |   8 |  5 |  11 |   0 | 1.866644e+05 | 1.879554e+05 |   0.69%| unknown
 96.5s|     1 |     0 | 69313 |     - |   377M |   0 |3751 |3794 |3804 |  10 |  6 |  11 |   0 | 1.866713e+05 | 1.879554e+05 |   0.69%| unknown
 96.7s|     1 |     0 | 69332 |     - |   377M |   0 |3751 |3794 |3805 |  11 |  7 |  11 |   0 | 1.866716e+05 | 1.879554e+05 |   0.69%| unknown
 97.0s|     1 |     0 | 69413 |     - |   377M |   0 |3751 |3794 |3806 |  12 |  9 |  11 |   0 | 1.866740e+05 | 1.879554e+05 |   0.69%| unknown
 97.1s|     1 |     0 | 69481 |     - |   378M |   0 |3751 |3794 |3807 |  13 | 10 |  11 |   0 | 1.866754e+05 | 1.879554e+05 |   0.69%| unknown
 97.3s|     1 |     0 | 69681 |     - |   378M |   0 |3751 |3794 |3809 |  15 | 11 |  11 |   0 | 1.866844e+05 | 1.879554e+05 |   0.68%| unknown
 97.4s|     1 |     0 | 69723 |     - |   379M |   0 |3751 |3794 |3810 |  16 | 12 |  11 |   0 | 1.866864e+05 | 1.879554e+05 |   0.68%| unknown
 97.5s|     1 |     0 | 69723 |     - |   379M |   0 |3751 |3794 |3809 |  16 | 12 |  11 |   0 | 1.866864e+05 | 1.879554e+05 |   0.68%| unknown
L98.1s|     1 |     0 | 69723 |     - |    rens|   0 |3751 |3793 |3809 |  16 | 12 |  11 |   0 | 1.866864e+05 | 1.872494e+05 |   0.30%| unknown
 time | node  | left  |LP iter|LP it/n|mem/heur|mdpt |vars |cons |rows |cuts |sepa|confs|strbr|  dualbound   | primalbound  |  gap   | compl. 
 98.1s|     1 |     0 | 69723 |     - |   379M |   0 |3751 |3793 |3809 |  16 | 12 |  11 |   0 | 1.866864e+05 | 1.872494e+05 |   0.30%| unknown
 98.2s|     1 |     0 | 69723 |     - |   379M |   0 |3751 |3793 |2594 |  16 | 12 |  11 |   0 | 1.866864e+05 | 1.872494e+05 |   0.30%| unknown
 98.3s|     1 |     0 | 69821 |     - |   379M |   0 |3751 |2578 |2597 |  19 | 13 |  11 |   0 | 1.866901e+05 | 1.872494e+05 |   0.30%| unknown
 98.3s|     1 |     0 | 69821 |     - |   379M |   0 |3751 |2578 |2590 |  19 | 13 |  11 |   0 | 1.866901e+05 | 1.872494e+05 |   0.30%| unknown
 98.3s|     1 |     0 | 69891 |     - |   379M |   0 |3751 |2578 |2592 |  21 | 14 |  11 |   0 | 1.866923e+05 | 1.872494e+05 |   0.30%| unknown
 98.3s|     1 |     0 | 69891 |     - |   379M |   0 |3751 |2578 |2587 |  21 | 14 |  11 |   0 | 1.866923e+05 | 1.872494e+05 |   0.30%| unknown
(run 2, node 1) restarting after 1443 global fixings of integer variables

(restart) converted 21 cuts from the global cut pool into linear constraints

presolving:
(round 1, fast)       1443 del vars, 0 del conss, 0 add conss, 0 chg bounds, 0 chg sides, 0 chg coeffs, 0 upgd conss, 0 impls, 2349 clqs
   (98.6s) running MILP presolver
   (98.6s) MILP presolver found nothing
(round 2, exhaustive) 1443 del vars, 0 del conss, 0 add conss, 0 chg bounds, 0 chg sides, 0 chg coeffs, 21 upgd conss, 0 impls, 2349 clqs
presolving (3 rounds: 3 fast, 2 medium, 2 exhaustive):
 1443 deleted vars, 0 deleted constraints, 0 added constraints, 0 tightened bounds, 0 added holes, 0 changed sides, 0 changed coefficients
 0 implications, 2349 cliques
presolved problem has 2308 variables (2308 bin, 0 int, 0 impl, 0 cont) and 2384 constraints
     35 constraints of type <knapsack>
   2349 constraints of type <setppc>
Presolving Time: 3.56
transformed 3/6 original solutions to the transformed problem space

 time | node  | left  |LP iter|LP it/n|mem/heur|mdpt |vars |cons |rows |cuts |sepa|confs|strbr|  dualbound   | primalbound  |  gap   | compl. 
 99.7s|     1 |     0 | 74893 |     - |   377M |   0 |2308 |2384 |2384 |   0 |  0 |  11 |   0 | 1.866923e+05 | 1.872494e+05 |   0.30%| unknown
  100s|     1 |     0 | 74954 |     - |   377M |   0 |2308 |2384 |2385 |   1 |  1 |  11 |   0 | 1.866948e+05 | 1.872494e+05 |   0.30%| unknown
  100s|     1 |     0 | 74954 |     - |   377M |   0 |2308 |2384 |2380 |   1 |  1 |  11 |   0 | 1.866948e+05 | 1.872494e+05 |   0.30%| unknown
  100s|     1 |     0 | 75031 |     - |   378M |   0 |2308 |2379 |2381 |   2 |  2 |  11 |   0 | 1.866971e+05 | 1.872494e+05 |   0.30%| unknown
  100s|     1 |     0 | 75031 |     - |   378M |   0 |2308 |2379 |2377 |   2 |  2 |  11 |   0 | 1.866971e+05 | 1.872494e+05 |   0.30%| unknown
  101s|     1 |     0 | 75042 |     - |   378M |   0 |2308 |2375 |2378 |   3 |  3 |  11 |   0 | 1.866972e+05 | 1.872494e+05 |   0.30%| unknown
  101s|     1 |     0 | 75042 |     - |   378M |   0 |2308 |2375 |2377 |   3 |  3 |  11 |   0 | 1.866972e+05 | 1.872494e+05 |   0.30%| unknown
  101s|     1 |     0 | 75052 |     - |   378M |   0 |2308 |2374 |2378 |   4 |  4 |  11 |   0 | 1.866976e+05 | 1.872494e+05 |   0.30%| unknown
  101s|     1 |     0 | 75052 |     - |   378M |   0 |2308 |2374 |2377 |   4 |  4 |  11 |   0 | 1.866976e+05 | 1.872494e+05 |   0.30%| unknown
  101s|     1 |     0 | 75105 |     - |   378M |   0 |2308 |2373 |2378 |   5 |  5 |  11 |   0 | 1.866987e+05 | 1.872494e+05 |   0.29%| unknown
  101s|     1 |     0 | 75105 |     - |   378M |   0 |2308 |2373 |2376 |   5 |  5 |  11 |   0 | 1.866987e+05 | 1.872494e+05 |   0.29%| unknown
  102s|     1 |     0 | 75137 |     - |   378M |   0 |2308 |2371 |2377 |   6 |  6 |  11 |   0 | 1.866993e+05 | 1.872494e+05 |   0.29%| unknown
  102s|     1 |     0 | 75137 |     - |   378M |   0 |2308 |2371 |2376 |   6 |  6 |  11 |   0 | 1.866993e+05 | 1.872494e+05 |   0.29%| unknown
  102s|     1 |     0 | 75227 |     - |   378M |   0 |2308 |2370 |2377 |   7 |  7 |  11 |   0 | 1.867017e+05 | 1.872494e+05 |   0.29%| unknown
  102s|     1 |     0 | 75227 |     - |   378M |   0 |2308 |2370 |2372 |   7 |  7 |  11 |   0 | 1.867017e+05 | 1.872494e+05 |   0.29%| unknown
 time | node  | left  |LP iter|LP it/n|mem/heur|mdpt |vars |cons |rows |cuts |sepa|confs|strbr|  dualbound   | primalbound  |  gap   | compl. 
  102s|     1 |     0 | 75239 |     - |   378M |   0 |2308 |2365 |2373 |   8 |  8 |  11 |   0 | 1.867018e+05 | 1.872494e+05 |   0.29%| unknown
  103s|     1 |     0 | 75329 |     - |   379M |   0 |2308 |2365 |2374 |   9 |  9 |  11 |   0 | 1.867028e+05 | 1.872494e+05 |   0.29%| unknown
  103s|     1 |     0 | 75356 |     - |   379M |   0 |2308 |2365 |2375 |  10 | 10 |  11 |   0 | 1.867032e+05 | 1.872494e+05 |   0.29%| unknown
  103s|     1 |     0 | 75356 |     - |   379M |   0 |2308 |2365 |2374 |  10 | 10 |  11 |   0 | 1.867032e+05 | 1.872494e+05 |   0.29%| unknown
  104s|     1 |     0 | 75472 |     - |   379M |   0 |2308 |2364 |2375 |  11 | 11 |  11 |   0 | 1.867071e+05 | 1.872494e+05 |   0.29%| unknown
  104s|     1 |     0 | 75472 |     - |   379M |   0 |2308 |2364 |2366 |  11 | 11 |  11 |   0 | 1.867071e+05 | 1.872494e+05 |   0.29%| unknown
  112s|     1 |     2 | 75474 |     - |   379M |   0 |2308 |2355 |2366 |  11 | 11 |  11 |  33 | 1.868433e+05 | 1.872494e+05 |   0.22%| unknown
* 113s|     2 |     1 | 76160 |19543.3 |strongbr|   1 |2308 |2356 |2353 |  11 |  3 |  12 |  36 | 1.869269e+05 | 1.872404e+05 |   0.17%| unknown

SCIP Status        : problem is solved [optimal solution found]
Solving Time (sec) : 114.68
Solving Nodes      : 3 (total of 5 nodes in 3 runs)
Primal Bound       : +1.87240369897959e+05 (8 solutions)
Dual Bound         : +1.87240369897959e+05
Gap                : 0.00 %
Solve Status: optimal
Solve Time: 114.82 seconds
Objective Value: 187240.37
